p edge 140 1333 111
e 1 4
e 1 10
e 1 18
e 1 25
e 1 31
e 1 36
e 1 53
e 1 59
e 1 60
e 1 72
e 1 77
e 1 78
e 1 91
e 1 93
e 1 101
e 1 109
e 1 114
e 1 123
e 1 125
e 2 7
e 2 8
e 2 24
e 2 42
e 2 47
e 2 51
e 2 65
e 2 68
e 2 70
e 2 76
e 2 78
e 2 86
e 2 87
e 2 95
e 2 115
e 2 118
e 2 127
e 2 138
e 3 23
e 3 50
e 3 63
e 3 78
e 3 87
e 3 90
e 3 113
e 3 118
e 3 120
e 3 127
e 3 128
e 3 135
e 4 20
e 4 24
e 4 35
e 4 36
e 4 41
e 4 48
e 4 73
e 4 75
e 4 77
e 4 96
e 4 103
e 4 106
e 4 108
e 4 113
e 4 115
e 4 129
e 5 9
e 5 13
e 5 14
e 5 17
e 5 18
e 5 21
e 5 26
e 5 36
e 5 64
e 5 75
e 5 86
e 5 90
e 5 98
e 5 99
e 5 123
e 5 130
e 5 135
e 5 138
e 6 14
e 6 17
e 6 34
e 6 36
e 6 37
e 6 38
e 6 42
e 6 46
e 6 69
e 6 71
e 6 78
e 6 82
e 6 85
e 6 99
e 6 102
e 6 103
e 6 104
e 6 113
e 6 126
e 6 131
e 7 11
e 7 37
e 7 44
e 7 52
e 7 54
e 7 58
e 7 62
e 7 73
e 7 75
e 7 77
e 7 81
e 7 82
e 7 88
e 7 93
e 7 120
e 8 17
e 8 19
e 8 33
e 8 36
e 8 43
e 8 46
e 8 50
e 8 54
e 8 64
e 8 79
e 8 85
e 8 91
e 8 92
e 8 95
e 8 96
e 8 98
e 8 100
e 8 119
e 8 126
e 9 12
e 9 15
e 9 19
e 9 23
e 9 24
e 9 39
e 9 43
e 9 46
e 9 49
e 9 56
e 9 58
e 9 62
e 9 64
e 9 65
e 9 100
e 9 112
e 9 113
e 9 118
e 9 130
e 9 140
e 10 32
e 10 35
e 10 38
e 10 40
e 10 41
e 10 56
e 10 61
e 10 64
e 10 66
e 10 73
e 10 75
e 10 81
e 10 83
e 10 85
e 10 87
e 10 90
e 10 92
e 10 97
e 10 131
e 10 138
e 11 19
e 11 29
e 11 30
e 11 37
e 11 59
e 11 64
e 11 68
e 11 79
e 11 80
e 11 93
e 11 104
e 11 105
e 11 112
e 11 113
e 11 114
e 11 115
e 11 120
e 11 127
e 11 131
e 12 14
e 12 35
e 12 46
e 12 47
e 12 56
e 12 62
e 12 82
e 12 83
e 12 114
e 12 116
e 12 118
e 12 128
e 12 130
e 12 131
e 12 135
e 12 137
e 13 27
e 13 30
e 13 42
e 13 58
e 13 61
e 13 62
e 13 63
e 13 97
e 13 111
e 13 117
e 13 119
e 13 122
e 13 123
e 13 138
e 13 139
e 14 18
e 14 20
e 14 31
e 14 36
e 14 44
e 14 45
e 14 53
e 14 54
e 14 56
e 14 61
e 14 71
e 14 76
e 14 81
e 14 88
e 14 90
e 14 93
e 14 97
e 14 103
e 14 107
e 14 110
e 14 112
e 14 121
e 14 122
e 14 123
e 14 124
e 14 125
e 14 128
e 14 139
e 14 140
e 15 21
e 15 27
e 15 55
e 15 58
e 15 62
e 15 73
e 15 74
e 15 78
e 15 88
e 15 91
e 15 95
e 15 98
e 15 105
e 15 125
e 15 129
e 15 132
e 15 134
e 16 19
e 16 27
e 16 28
e 16 30
e 16 48
e 16 55
e 16 62
e 16 72
e 16 74
e 16 77
e 16 78
e 16 79
e 16 80
e 16 81
e 16 89
e 16 93
e 16 97
e 16 99
e 16 100
e 16 114
e 16 123
e 16 124
e 16 130
e 16 133
e 16 136
e 16 137
e 17 18
e 17 24
e 17 28
e 17 39
e 17 66
e 17 77
e 17 83
e 17 93
e 17 94
e 17 96
e 17 116
e 17 118
e 18 21
e 18 33
e 18 62
e 18 63
e 18 66
e 18 70
e 18 73
e 18 75
e 18 89
e 18 93
e 18 99
e 18 110
e 18 140
e 19 26
e 19 49
e 19 51
e 19 57
e 19 65
e 19 71
e 19 86
e 19 97
e 19 106
e 19 110
e 19 124
e 19 126
e 19 133
e 19 138
e 19 140
e 20 22
e 20 27
e 20 41
e 20 45
e 20 48
e 20 62
e 20 63
e 20 68
e 20 69
e 20 80
e 20 82
e 20 87
e 20 89
e 20 100
e 20 111
e 20 112
e 20 116
e 20 123
e 20 127
e 20 137
e 21 24
e 21 37
e 21 38
e 21 44
e 21 47
e 21 53
e 21 54
e 21 60
e 21 62
e 21 69
e 21 70
e 21 73
e 21 94
e 21 97
e 21 107
e 21 117
e 21 118
e 21 135
e 21 137
e 22 26
e 22 28
e 22 34
e 22 36
e 22 43
e 22 57
e 22 70
e 22 75
e 22 78
e 22 83
e 22 94
e 22 109
e 22 121
e 22 128
e 22 137
e 23 29
e 23 31
e 23 33
e 23 43
e 23 47
e 23 48
e 23 52
e 23 53
e 23 68
e 23 78
e 23 81
e 23 88
e 23 98
e 23 119
e 23 138
e 24 40
e 24 43
e 24 49
e 24 57
e 24 77
e 24 82
e 24 83
e 24 91
e 24 95
e 24 103
e 24 107
e 24 124
e 24 131
e 24 133
e 25 27
e 25 37
e 25 40
e 25 43
e 25 45
e 25 47
e 25 56
e 25 61
e 25 63
e 25 71
e 25 90
e 25 99
e 25 100
e 25 102
e 25 105
e 25 119
e 25 121
e 25 123
e 26 36
e 26 46
e 26 50
e 26 52
e 26 71
e 26 80
e 26 83
e 26 92
e 26 113
e 26 117
e 26 122
e 26 125
e 27 37
e 27 50
e 27 56
e 27 59
e 27 79
e 27 80
e 27 87
e 27 91
e 27 106
e 27 112
e 27 114
e 27 116
e 27 128
e 27 133
e 28 51
e 28 52
e 28 62
e 28 67
e 28 75
e 28 76
e 28 79
e 28 84
e 28 86
e 28 89
e 28 93
e 28 97
e 28 111
e 28 114
e 28 135
e 28 137
e 29 41
e 29 51
e 29 53
e 29 62
e 29 64
e 29 73
e 29 81
e 29 83
e 29 84
e 29 92
e 29 112
e 29 134
e 30 41
e 30 51
e 30 53
e 30 60
e 30 61
e 30 68
e 30 78
e 30 83
e 30 99
e 30 107
e 30 127
e 30 130
e 30 139
e 31 37
e 31 47
e 31 48
e 31 52
e 31 56
e 31 59
e 31 63
e 31 65
e 31 75
e 31 90
e 31 91
e 31 92
e 31 93
e 31 102
e 31 112
e 31 130
e 31 133
e 31 135
e 32 35
e 32 46
e 32 47
e 32 61
e 32 67
e 32 71
e 32 82
e 32 101
e 32 102
e 32 113
e 32 120
e 32 122
e 32 130
e 33 36
e 33 39
e 33 53
e 33 80
e 33 82
e 33 85
e 33 90
e 33 93
e 33 95
e 33 97
e 33 100
e 33 103
e 33 106
e 33 107
e 33 113
e 33 121
e 33 126
e 33 138
e 34 38
e 34 45
e 34 49
e 34 52
e 34 55
e 34 65
e 34 66
e 34 69
e 34 91
e 34 96
e 34 106
e 34 122
e 34 126
e 34 135
e 35 55
e 35 68
e 35 71
e 35 82
e 35 92
e 35 96
e 35 104
e 35 107
e 35 113
e 35 114
e 35 132
e 35 136
e 35 140
e 36 39
e 36 45
e 36 63
e 36 72
e 36 81
e 36 83
e 36 94
e 36 98
e 36 102
e 36 108
e 36 110
e 36 112
e 36 137
e 36 138
e 37 48
e 37 52
e 37 65
e 37 66
e 37 67
e 37 69
e 37 89
e 37 110
e 37 115
e 37 121
e 37 127
e 37 130
e 37 131
e 37 133
e 37 139
e 37 140
e 38 46
e 38 48
e 38 51
e 38 52
e 38 53
e 38 57
e 38 64
e 38 65
e 38 66
e 38 70
e 38 91
e 38 110
e 38 113
e 38 122
e 38 126
e 39 43
e 39 55
e 39 66
e 39 67
e 39 83
e 39 101
e 39 109
e 39 110
e 39 122
e 39 133
e 40 49
e 40 54
e 40 71
e 40 80
e 40 81
e 40 82
e 40 84
e 40 87
e 40 89
e 40 98
e 40 107
e 40 121
e 40 124
e 40 131
e 41 46
e 41 48
e 41 55
e 41 56
e 41 67
e 41 84
e 41 97
e 41 109
e 41 111
e 41 116
e 41 120
e 41 121
e 41 124
e 41 133
e 41 135
e 41 136
e 41 137
e 41 139
e 42 50
e 42 57
e 42 79
e 42 95
e 42 112
e 42 129
e 42 131
e 42 140
e 43 46
e 43 56
e 43 60
e 43 74
e 43 75
e 43 76
e 43 82
e 43 106
e 43 133
e 44 50
e 44 78
e 44 80
e 44 84
e 44 88
e 44 89
e 44 92
e 44 111
e 44 119
e 44 122
e 44 123
e 44 129
e 44 136
e 44 139
e 45 48
e 45 52
e 45 54
e 45 55
e 45 64
e 45 82
e 45 86
e 45 92
e 45 94
e 45 97
e 45 98
e 45 99
e 45 100
e 45 104
e 45 105
e 45 116
e 45 118
e 45 121
e 45 124
e 45 126
e 45 132
e 45 134
e 45 136
e 45 138
e 45 140
e 46 47
e 46 53
e 46 62
e 46 63
e 46 69
e 46 73
e 46 76
e 46 77
e 46 81
e 46 85
e 46 100
e 46 106
e 46 108
e 46 118
e 46 126
e 46 128
e 47 51
e 47 84
e 47 89
e 47 90
e 47 103
e 47 104
e 47 112
e 47 113
e 47 136
e 48 56
e 48 60
e 48 61
e 48 65
e 48 69
e 48 70
e 48 73
e 48 77
e 48 98
e 48 99
e 48 100
e 48 112
e 48 115
e 48 116
e 48 120
e 49 53
e 49 72
e 49 88
e 49 101
e 49 131
e 49 132
e 50 57
e 50 59
e 50 62
e 50 63
e 50 68
e 50 70
e 50 75
e 50 90
e 50 95
e 50 99
e 50 102
e 50 118
e 50 133
e 50 138
e 51 62
e 51 64
e 51 66
e 51 77
e 51 79
e 51 91
e 51 98
e 51 105
e 51 108
e 51 109
e 51 112
e 51 114
e 51 122
e 51 127
e 51 132
e 52 55
e 52 58
e 52 65
e 52 69
e 52 76
e 52 101
e 52 102
e 52 103
e 52 114
e 53 76
e 53 97
e 53 101
e 53 104
e 53 113
e 53 129
e 53 134
e 53 137
e 53 139
e 54 58
e 54 65
e 54 74
e 54 84
e 54 91
e 54 126
e 54 127
e 54 140
e 55 64
e 55 68
e 55 72
e 55 75
e 55 80
e 55 81
e 55 83
e 55 90
e 55 96
e 55 98
e 55 108
e 55 126
e 55 130
e 55 132
e 55 135
e 55 136
e 55 137
e 56 59
e 56 64
e 56 66
e 56 69
e 56 70
e 56 80
e 56 83
e 56 84
e 56 93
e 56 101
e 56 107
e 56 108
e 56 117
e 57 75
e 57 89
e 57 94
e 57 100
e 57 109
e 57 111
e 57 132
e 57 137
e 57 138
e 58 61
e 58 70
e 58 81
e 58 90
e 58 95
e 58 98
e 58 106
e 58 114
e 58 118
e 58 120
e 58 137
e 59 73
e 59 75
e 59 82
e 59 92
e 59 108
e 59 118
e 59 121
e 59 122
e 59 124
e 59 126
e 59 136
e 60 82
e 60 84
e 60 95
e 60 106
e 60 107
e 60 112
e 60 113
e 60 128
e 60 129
e 60 130
e 60 132
e 61 66
e 61 81
e 61 91
e 61 98
e 61 118
e 61 129
e 61 138
e 61 140
e 62 71
e 62 74
e 62 79
e 62 83
e 62 84
e 62 91
e 62 99
e 62 104
e 62 105
e 62 120
e 62 131
e 62 132
e 63 65
e 63 66
e 63 69
e 63 75
e 63 80
e 63 98
e 63 103
e 63 104
e 63 116
e 63 117
e 63 128
e 63 131
e 63 133
e 64 68
e 64 69
e 64 92
e 64 93
e 64 106
e 64 114
e 64 115
e 64 121
e 64 131
e 64 133
e 65 71
e 65 79
e 65 91
e 65 95
e 65 105
e 65 114
e 65 116
e 65 119
e 65 121
e 65 123
e 65 131
e 66 71
e 66 73
e 66 74
e 66 96
e 66 97
e 66 103
e 66 104
e 66 107
e 66 108
e 66 111
e 66 115
e 66 124
e 66 127
e 66 130
e 66 139
e 67 94
e 67 112
e 67 118
e 67 124
e 67 128
e 67 132
e 67 137
e 68 72
e 68 83
e 68 90
e 68 93
e 68 98
e 68 104
e 68 110
e 68 117
e 68 119
e 68 132
e 69 73
e 69 74
e 69 77
e 69 79
e 69 87
e 69 88
e 69 93
e 69 101
e 69 114
e 69 116
e 69 122
e 69 123
e 69 126
e 69 136
e 69 140
e 70 72
e 70 74
e 70 76
e 70 85
e 70 87
e 70 97
e 70 110
e 70 112
e 70 121
e 70 140
e 71 76
e 71 81
e 71 82
e 71 88
e 71 89
e 71 90
e 71 91
e 71 97
e 71 119
e 71 128
e 71 129
e 71 131
e 71 134
e 71 137
e 71 139
e 72 84
e 72 90
e 72 92
e 72 94
e 72 95
e 72 96
e 72 102
e 72 114
e 72 127
e 72 131
e 72 134
e 72 139
e 73 79
e 73 82
e 73 84
e 73 101
e 73 108
e 73 111
e 73 114
e 73 117
e 73 120
e 73 121
e 73 134
e 73 136
e 73 140
e 74 85
e 74 90
e 74 107
e 74 108
e 74 113
e 74 135
e 75 76
e 75 82
e 75 90
e 75 115
e 75 127
e 75 136
e 76 79
e 76 82
e 76 84
e 76 97
e 76 105
e 76 138
e 77 84
e 77 88
e 77 90
e 77 101
e 77 118
e 77 119
e 77 125
e 77 135
e 78 96
e 78 105
e 78 108
e 78 124
e 78 135
e 79 103
e 79 105
e 79 107
e 79 108
e 79 116
e 79 117
e 79 118
e 79 121
e 79 128
e 79 136
e 80 88
e 80 101
e 80 104
e 80 109
e 80 114
e 80 115
e 80 131
e 80 134
e 81 90
e 81 105
e 81 111
e 81 115
e 81 116
e 82 85
e 82 98
e 82 99
e 82 106
e 82 109
e 82 116
e 82 124
e 82 125
e 82 129
e 83 91
e 83 96
e 83 105
e 83 111
e 83 120
e 83 123
e 83 125
e 83 129
e 83 132
e 84 86
e 84 95
e 84 96
e 84 100
e 84 105
e 84 109
e 84 111
e 84 131
e 85 97
e 85 112
e 85 113
e 85 120
e 85 128
e 85 129
e 85 132
e 85 138
e 86 92
e 86 101
e 86 120
e 87 89
e 87 90
e 87 106
e 87 109
e 87 111
e 87 117
e 87 123
e 88 95
e 88 98
e 88 111
e 88 114
e 88 116
e 88 117
e 88 124
e 88 125
e 88 136
e 89 96
e 89 106
e 89 107
e 89 109
e 90 92
e 90 96
e 90 99
e 90 104
e 90 105
e 90 113
e 90 124
e 90 126
e 90 132
e 91 104
e 91 105
e 91 106
e 91 120
e 91 122
e 91 124
e 91 128
e 91 130
e 91 138
e 92 93
e 92 104
e 92 113
e 92 118
e 92 123
e 92 137
e 92 140
e 93 107
e 93 118
e 93 119
e 93 138
e 94 97
e 94 122
e 94 129
e 94 133
e 94 134
e 94 136
e 95 103
e 95 109
e 95 112
e 95 123
e 95 131
e 95 134
e 95 140
e 96 105
e 96 106
e 96 109
e 96 113
e 96 114
e 96 140
e 97 100
e 97 101
e 97 103
e 97 108
e 97 112
e 97 115
e 97 138
e 98 99
e 98 100
e 98 103
e 98 105
e 98 107
e 98 108
e 98 118
e 98 125
e 98 129
e 99 106
e 99 111
e 99 115
e 99 117
e 99 132
e 99 136
e 100 111
e 100 112
e 100 114
e 100 119
e 100 122
e 101 102
e 101 119
e 101 121
e 101 124
e 101 134
e 102 106
e 102 124
e 102 127
e 102 129
e 102 138
e 103 105
e 103 113
e 103 115
e 103 116
e 103 140
e 104 105
e 104 120
e 104 125
e 104 132
e 105 106
e 105 114
e 105 117
e 105 120
e 105 121
e 105 131
e 105 134
e 105 137
e 106 115
e 106 122
e 106 128
e 106 133
e 106 134
e 106 136
e 106 137
e 107 118
e 107 119
e 107 130
e 107 132
e 107 134
e 107 137
e 107 139
e 108 118
e 108 125
e 108 127
e 108 133
e 108 135
e 108 136
e 108 139
e 109 110
e 109 123
e 109 125
e 109 132
e 110 128
e 111 113
e 112 113
e 112 117
e 112 123
e 112 126
e 112 137
e 113 119
e 114 124
e 114 128
e 114 129
e 114 138
e 115 117
e 115 121
e 115 124
e 115 132
e 115 138
e 116 133
e 117 126
e 117 127
e 117 134
e 119 128
e 120 130
e 120 137
e 123 125
e 123 132
e 123 134
e 124 128
e 124 134
e 125 127
e 126 133
e 127 139
e 127 140
e 129 130
e 129 139
e 130 134
e 130 135
e 131 132
e 132 139
e 133 134
e 133 138
e 133 140
e 134 139
e 136 140
e 138 140
